echo 		screen
dimension 	3	 
boundary	p p f
units		lj

atom_style	atomic

########## System setup  ##########
variable        rlatt equal (4/${sdens})^(1/3)
variable        rlatt_half equal ${rlatt}/2.0

variable        Lx equal 16
variable        Ly equal 16
variable        Lz equal 20
variable        xlo equal -${Lx}/2
variable        xhi equal  ${Lx}/2
variable        ylo equal -${Ly}/2
variable        yhi equal  ${Ly}/2
variable        zlo equal -${Lz}/2
variable        zhi equal  ${Lz}/2
variable	wall_width equal 2.0

variable        sim_xlo equal ${xlo}+${rlatt_half} 
variable        sim_xhi equal ${xhi}+${rlatt_half} 
variable        sim_ylo equal ${ylo}+${rlatt_half} 
variable        sim_yhi equal ${yhi}+${rlatt_half} 
variable        sim_zlo equal ${zlo}-${wall_width}
variable        sim_zhi equal ${zhi}+${wall_width}


region 		myregion block ${sim_xlo} ${sim_xhi} ${sim_ylo} ${sim_yhi} ${sim_zlo} ${sim_zhi} units box		# Define simulation box
 
region		fluid block ${xlo} ${xhi} ${ylo} ${yhi} ${zlo} ${zhi} units box		# Define fluid region  
region		wall1 block ${xlo} ${xhi} ${ylo} ${yhi} ${sim_zlo} ${zlo} units box	# Define bottom wall region
region		wall2 block ${xlo} ${xhi} ${ylo} ${yhi} ${zhi} ${sim_zhi} units box	# Define top wall

create_box	3 myregion			# Create simulation box

create_atoms	1 random 2560 87183 fluid	# Create fluid particles with density 0.5

lattice  	fcc ${sdens}			

create_atoms 	2 region wall1			# Create bottom wall with fcc lattice density of 1.0
create_atoms 	3 region wall2			# Create top wall with fcc lattice density of 1.0

mass 		1 1.0
mass 		2 1.0
mass 		3 1.0

write_data 	poiseuille.lmpsys

########## Defining groups ##########
group 		system type 1 2 3  

group           fluid type 1 

group           bot type 2  
group           top type 3 
group		wall type 2 3 

########## Interaction potentials ##########
pair_style 	lj/cut 2.5

pair_coeff      1 1 1.0 1.0
pair_coeff      1 2* 1.0 1.0
pair_coeff      2* 2* 0.0 0.0

## OR ##
#pair_coeff 	* * 1.0 1.0 

##########  Timestep & minimization  ##########
timestep        0.001
neighbor        1.0 bin
neigh_modify    every 1 delay 0 check yes
neigh_modify    exclude group wall wall			 

velocity        fluid create 1.0 123456

fix             fxwall wall setforce 0.0 0.0 0.0	# To keep the walls rigid
minimize        1.0e-6 1.0e-6 1000000 1000000
reset_timestep  0

##########  Thermostating the fluid using Nos'e-Hoover thermostat ##########
fix             fxnvt_fluid fluid nvt temp 1.0 1.0 $(100.0*dt)

compute         wall_temp wall temp
compute         fluid_temp fluid temp

thermo          10
thermo_style    custom step temp c_wall_temp c_fluid_temp ke pe etotal 

dump            dmpall  all dcd 50 dump.dcd
dump_modify     dmpall unwrap yes		# Output in unwrapped coordinates

compute         cChunk fluid chunk/atom bin/1d z 0.0 0.1 units box bound z -12.0 12.0       	# Binning with a binwidth 0.1
fix             fx_vel1 fluid ave/chunk 1 10000 10000 cChunk vx vy vz file ./vel_before.dat	# velocity profile averaged over 10000 timesteps

run             10000
unfix 		fx_vel1

########## Application of external field ##########
fix             fxacc fluid gravity 0.075 vector 1 0 0		# Applying an external acceleration of 0.075 to all fluid particles in the x-direction

compute         fluidTemp fluid temp/partial 0 1 1		# Removing x-component of velocity in temperature calculation
fix_modify 	fxnvt_fluid temp fluidTemp			# Inputting unbiased fluid temperature into fix nvt

run		10000
reset_timestep  0

########## Output run ##########
fix             fx_vel2 fluid ave/chunk 1 10000 10000 cChunk vx vy vz file ./vel_after.dat	# Velocity profile averaged over 10000 timesteps
fix             fx_den fluid ave/chunk 1 10000 10000 cChunk density/mass file ./den.dat		# Density profile averaged over 10000 timesteps

run             10000
