#LAMMPS script to simulate a water box 

dimension 	3
boundary 	p p p
units		real

atom_style	full # Style "full" is used to simulate molecular systems with charges.

########## Reading the system file ########## 
read_data	./water.lmpsys
    
########## Defining groups ##########
group 		water type 1 2 
group 		hyd type 1
group 		oxy type 2

########## Interaction Potentials ##########
pair_style	lj/cut/coul/long 10.0 10.0
kspace_style 	pppm 0.0001
bond_style   	harmonic
angle_style  	harmonic

bond_coeff   	1 1000.0 1.0 
angle_coeff  	1 1000.0 109.47
pair_coeff   	* * 0.0 0.0	        # HT
pair_coeff   	2 2 0.15535 3.166  	# OT

########## Timestep and Neighbor list ##########
timestep        1.0
neighbor        2.0 bin
neigh_modify    every 1 delay 0 check yes

########## Log and dump output ##########
thermo_style    custom step temp density pe evdwl ecoul etotal lx ly lz vol
thermo          10
log             log.dat

dump            dmpall  all dcd 50 water.dcd
dump_modify     dmpall unwrap yes

########## System minimization ##########
velocity        all create 298.0 7654321  dist gaussian
minimize 	1.0e-4 1.0e-4 1000000 1000000

fix 		fxshk all shake 0.0001 20 0 b 1 a 1

########## Equilibration in a NPT ensemble (Nos`e-Hoover barostat) ##########
fix             fxnpt all npt temp 298.0 298.0 100.0 iso 1.0 1.0 100.0 
run 		50000

reset_timestep  0
########## Output Run ##########
compute         computeRdf all rdf 200 1 1 1 2 2 2 
fix             fixRdf all ave/time 1 50000 50000 c_computeRdf[*] file rdf.dat mode vector

compute 	computeMsd oxy msd
fix             fixMsd oxy ave/time 1 1 50 c_computeMsd[*] file msd.dat

run 		50000
